p td 22 63
4 3
5 1
5 2
5 4
7 5
7 2
8 2
9 3
9 5
9 2
9 4
10 3
10 4
10 1
11 8
12 9
12 2
12 11
13 1
13 7
13 11
13 8
14 4
14 3
15 3
15 11
15 8
15 1
15 14
15 6
15 12
16 12
16 4
16 2
16 8
17 9
17 3
17 7
17 12
18 5
18 14
18 2
18 15
18 6
18 12
19 8
19 18
19 7
19 3
19 2
19 12
20 11
20 2
20 17
20 4
21 12
21 19
21 6
22 11
22 18
22 9
22 10
22 20
